benchmarks/bfuzz0/174703053310912433414627212292338525191.smt2
(set-logic QF_FP)
(declare-const x0 (_ FloatingPoint 8 24))
(declare-const x1 (_ FloatingPoint 8 24))
(declare-const x2 (_ FloatingPoint 8 24))
(declare-const x3 (_ FloatingPoint 8 24))
(declare-const x4 (_ FloatingPoint 8 24))
(declare-const x5 (_ FloatingPoint 8 24))
(declare-const x6 (_ FloatingPoint 8 24))
(declare-const x7 (_ FloatingPoint 8 24))
(declare-const x8 (_ FloatingPoint 8 24))
(declare-const x9 (_ FloatingPoint 8 24))
(declare-const x10 (_ FloatingPoint 8 24))
(assert (fp.eq (fp.div RNE x5 x7) (fp.mul RNE x7 x10)))
(assert (fp.lt (fp.mul RNE x8 x6) (fp.div RNE x9 x0)))
(assert (fp.lt (fp.neg x4) (fp.neg x3)))
(assert (fp.geq (fp.div RNE x4 x2) (fp.neg x4)))
(assert (fp.lt (fp.mul RNE x6 x7) (fp.mul RNE x5 x5)))
(assert (fp.eq (fp.sub RNE x7 x6) (fp.div RNE x1 x8)))
(assert (fp.eq (fp.sub RNE x2 x0) (fp.neg x10)))
(check-sat)
