db/data/174703053310912433414627212292338525191.z3.out
sat
-------------------
37.027160441
